14 38 76 9 78 40 3 26 89 24 
64 82 95 23 75 11 47 16 88 67 51 33 30 31 71 46 6 60 57 55 54 96 20 48 32 
44 28 27 99 86 12 87 52 8 45 42 17 10 74 34 68 70 1 43 
19 90 98 72 84 62 79 58 100 49 
65 63 21 73 41 81 15 85 25 18 59 80 94 39 77 4 35 
36 5 69 7 2 61 83 92 53 22 29 66 50 93 37 97 91 56 13 

